<number of tasks>
50

<cycle time>
1000

<order strength>
0.596


<task times>
1 431
2 25
3 586
4 67
5 384
6 74
7 41
8 79
9 99
10 149
11 36
12 95
13 259
14 100
15 109
16 157
17 22
18 462
19 419
20 98
21 191
22 222
23 31
24 64
25 499
26 144
27 344
28 365
29 82
30 398
31 178
32 457
33 450
34 556
35 142
36 158
37 44
38 74
39 336
40 323
41 268
42 430
43 149
44 183
45 315
46 164
47 206
48 223
49 102
50 487

<precedence relations>
1,10
2,10
3,10
4,6
4,7
4,8
5,9
6,36
7,10
8,10
9,11
9,12
9,13
10,14
10,15
10,16
10,17
10,18
11,34
12,34
13,19
13,23
13,24
14,20
14,23
15,20
15,24
16,22
16,24
16,26
17,20
17,21
17,22
17,23
18,24
18,31
19,20
19,21
19,22
20,34
21,25
21,26
23,26
24,27
25,27
25,28
25,29
25,33
26,30
27,36
28,36
29,34
30,31
30,32
31,34
32,33
32,35
33,36
34,37
34,38
34,39
34,40
34,41
34,42
34,43
34,50
36,44
36,45
36,46
36,47
36,48
36,50
43,49

<end>
